50
12717

218 739
855 436
382 569
28 211
255 980
510 49
636 878
708 298
637 666
266 986
732 14
849 321
232 90
992 421
155 940
54 429
159 881
404 303
310 621
185 608
969 221
848 394
190 781
816 209
189 563
274 364
961 44
49 204
230 884
841 266
726 620
244 413
639 738
736 485
392 276
551 458
932 575
537 651
773 917
443 225
63 475
289 665
172 535
720 624
100 568
818 730
341 445
805 936
6 857
95 893
